p edge 38 114
e 1 15
e 1 23
e 1 36
e 2 16
e 2 25
e 2 30
e 3 6
e 3 19
e 3 36
e 4 9
e 4 26
e 4 32
e 5 20
e 5 24
e 5 32
e 6 18
e 6 29
e 6 34
e 7 3
e 7 3
e 7 8
e 8 10
e 8 33
e 8 36
e 9 6
e 9 14
e 9 29
e 10 2
e 10 31
e 10 34
e 11 15
e 11 30
e 11 37
e 12 7
e 12 13
e 12 26
e 13 4
e 13 18
e 13 30
e 14 15
e 14 27
e 14 28
e 15 8
e 15 21
e 15 33
e 16 11
e 16 18
e 16 19
e 17 13
e 17 28
e 17 38
e 18 9
e 18 27
e 18 33
e 19 1
e 19 18
e 19 34
e 20 10
e 20 35
e 20 35
e 21 2
e 21 12
e 21 23
e 22 9
e 22 18
e 22 35
e 23 13
e 23 21
e 23 30
e 24 4
e 24 18
e 24 27
e 25 3
e 25 9
e 25 18
e 26 28
e 26 36
e 26 37
e 27 24
e 27 26
e 27 36
e 28 13
e 28 14
e 28 23
e 29 9
e 29 24
e 29 34
e 30 24
e 30 34
e 30 36
e 31 19
e 31 20
e 31 35
e 32 14
e 32 22
e 32 34
e 33 13
e 33 23
e 33 37
e 34 1
e 34 18
e 34 32
e 35 9
e 35 20
e 35 38
e 36 1
e 36 19
e 36 22
e 37 10
e 37 29
e 37 32
e 38 1
e 38 14
e 38 32
